c turning on binary mode checking
c parsing input formula with 202048 variables and 780985 clauses
c finished parsing, read 16447777 bytes from proof file
c detected empty clause; start verification via backward checking
c 11231 of 780985 clauses in core                            
c 13748 of 449024 lemmas in core using 176924 resolution steps
c 0 RAT lemmas in core; 1378 redundant literals in core lemmas
s VERIFIED
c verification time: 2.279 seconds
